\ Model Plasmids_copy
\ LP format - for model browsing. Use MPS format to capture full model detail.
Minimize
 
Subject To
 extr_ubd: contigext-6t_plasmid-0 <= 0.99
 extr_ubd: contigext-6h_plasmid-0 <= 0.99
 extr_ubd: contigext-90t_plasmid-0 <= 0.99
 extr_ubd: contigext-90h_plasmid-0 <= 0.99
 contig_ubd: contig-6_plasmid-0 - 0.5 contigext-6h_plasmid-0
   - 0.5 contigext-6t_plasmid-0 <= 0.99
 contig_ubd: contig-90_plasmid-0 - 0.5 contigext-90h_plasmid-0
   - 0.5 contigext-90t_plasmid-0 <= 0.99
 counted_seed: counted-seed_contig-216_plasmid-0 = 0
 counted_seed: counted-seed_contig-214_plasmid-0 = 0
 counted_seed: counted-seed_contig-212_plasmid-0 = 0
 counted_seed: counted-seed_contig-213_plasmid-0 = 0
 counted_seed: counted-seed_contig-210_plasmid-0 = 0
 counted_seed: counted-seed_contig-91_plasmid-0 = 0
 counted_seed: counted-seed_contig-131_plasmid-0 = 0
 counted_seed: counted-seed_contig-137_plasmid-0 = 0
 counted_seed: counted-seed_contig-136_plasmid-0 = 0
 counted_seed: counted-seed_contig-139_plasmid-0 = 0
 counted_seed: counted-seed_contig-138_plasmid-0 = 0
 counted_seed: counted-seed_contig-167_plasmid-0 = 0
 counted_seed: counted-seed_contig-160_plasmid-0 = 0
 counted_seed: counted-seed_contig-121_plasmid-0 = 0
 counted_seed: counted-seed_contig-123_plasmid-0 = 0
 counted_seed: counted-seed_contig-124_plasmid-0 = 0
 counted_seed: counted-seed_contig-125_plasmid-0 = 0
 counted_seed: counted-seed_contig-126_plasmid-0 = 0
 counted_seed: counted-seed_contig-128_plasmid-0 = 0
 counted_seed: counted-seed_contig-129_plasmid-0 = 0
 counted_seed: counted-seed_contig-199_plasmid-0 = 0
 counted_seed: counted-seed_contig-179_plasmid-0 = 0
 counted_seed: counted-seed_contig-147_plasmid-0 = 0
 counted_seed: counted-seed_contig-195_plasmid-0 = 0
 counted_seed: counted-seed_contig-194_plasmid-0 = 0
 counted_seed: counted-seed_contig-197_plasmid-0 = 0
 counted_seed: counted-seed_contig-196_plasmid-0 = 0
 counted_seed: counted-seed_contig-191_plasmid-0 = 0
 counted_seed: counted-seed_contig-190_plasmid-0 = 0
 counted_seed: counted-seed_contig-193_plasmid-0 = 0
 counted_seed: counted-seed_contig-192_plasmid-0 = 0
 counted_seed: counted-seed_contig-117_plasmid-0 = 0
 counted_seed: counted-seed_contig-145_plasmid-0 = 0
 counted_seed: counted-seed_contig-111_plasmid-0 = 0
 counted_seed: counted-seed_contig-110_plasmid-0 = 0
 counted_seed: counted-seed_contig-142_plasmid-0 = 0
 counted_seed: counted-seed_contig-80_plasmid-0 = 0
 counted_seed: counted-seed_contig-81_plasmid-0 = 0
 counted_seed: counted-seed_contig-118_plasmid-0 = 0
 counted_seed: counted-seed_contig-84_plasmid-0 = 0
 counted_seed: counted-seed_contig-85_plasmid-0 = 0
 counted_seed: counted-seed_contig-140_plasmid-0 = 0
 counted_seed: counted-seed_contig-141_plasmid-0 = 0
 counted_seed: counted-seed_contig-108_plasmid-0 = 0
 counted_seed: counted-seed_contig-102_plasmid-0 = 0
 counted_seed: counted-seed_contig-103_plasmid-0 = 0
 counted_seed: counted-seed_contig-106_plasmid-0 = 0
 counted_seed: counted-seed_contig-105_plasmid-0 = 0
 counted_seed: counted-seed_contig-60_plasmid-0 = 0
 counted_seed: counted-seed_contig-62_plasmid-0 = 0
 counted_seed: counted-seed_contig-65_plasmid-0 = 0
 counted_seed: counted-seed_contig-66_plasmid-0 = 0
 counted_seed: counted-seed_contig-69_plasmid-0 = 0
 counted_seed: counted-seed_contig-175_plasmid-0 = 0
 counted_seed: counted-seed_contig-174_plasmid-0 = 0
 counted_seed: counted-seed_contig-173_plasmid-0 = 0
 counted_seed: counted-seed_contig-171_plasmid-0 = 0
 counted_seed: counted-seed_contig-170_plasmid-0 = 0
 counted_seed: counted-seed_contig-182_plasmid-0 = 0
 counted_seed: counted-seed_contig-183_plasmid-0 = 0
 counted_seed: counted-seed_contig-180_plasmid-0 = 0
 counted_seed: counted-seed_contig-181_plasmid-0 = 0
 counted_seed: - contig-6_plasmid-0 + counted-seed_contig-6_plasmid-0 = 0
 counted_seed: counted-seed_contig-185_plasmid-0 = 0
 counted_seed: counted-seed_contig-169_plasmid-0 = 0
 counted_seed: counted-seed_contig-164_plasmid-0 = 0
 counted_seed: - contig-90_plasmid-0 + counted-seed_contig-90_plasmid-0
   = 0
 counted_seed: counted-seed_contig-166_plasmid-0 = 0
 counted_seed: counted-seed_contig-92_plasmid-0 = 0
 counted_seed: counted-seed_contig-95_plasmid-0 = 0
 counted_seed: counted-seed_contig-161_plasmid-0 = 0
 counted_seed: counted-seed_contig-162_plasmid-0 = 0
 counted_seed: counted-seed_contig-96_plasmid-0 = 0
 counted_seed: counted-seed_contig-17_plasmid-0 = 0
 counted_seed: counted-seed_contig-143_plasmid-0 = 0
 counted_seed: counted-seed_contig-151_plasmid-0 = 0
 counted_seed: counted-seed_contig-150_plasmid-0 = 0
 counted_seed: counted-seed_contig-152_plasmid-0 = 0
 counted_seed: counted-seed_contig-157_plasmid-0 = 0
 counted_seed: counted-seed_contig-156_plasmid-0 = 0
 counted_seed: counted-seed_contig-49_plasmid-0 = 0
 counted_seed: counted-seed_contig-87_plasmid-0 = 0
 counted_seed: counted-seed_contig-146_plasmid-0 = 0
 counted_seed: counted-seed_contig-200_plasmid-0 = 0
 counted_seed: counted-seed_contig-203_plasmid-0 = 0
 counted_seed: counted-seed_contig-202_plasmid-0 = 0
 counted_seed: counted-seed_contig-205_plasmid-0 = 0
 counted_seed: counted-seed_contig-204_plasmid-0 = 0
 counted_seed: counted-seed_contig-207_plasmid-0 = 0
 counted_seed: counted-seed_contig-206_plasmid-0 = 0
 counted_seed: counted-seed_contig-209_plasmid-0 = 0
 counted_seed: counted-seed_contig-208_plasmid-0 = 0
 counted_seed: counted-seed_contig-148_plasmid-0 = 0
 counted_seed: counted-seed_contig-149_plasmid-0 = 0
 counted_seed: counted-seed_contig-72_plasmid-0 = 0
 counted_seed: counted-seed_contig-71_plasmid-0 = 0
 counted_seed: counted-seed_contig-70_plasmid-0 = 0
 counted_seed: counted-seed_contig-79_plasmid-0 = 0
 counted_seed: counted-seed_contig-78_plasmid-0 = 0
 counted_seed: counted-seed_contig-144_plasmid-0 = 0
 seed_existence: counted-seed_contig-216_plasmid-0
   + counted-seed_contig-214_plasmid-0 + counted-seed_contig-212_plasmid-0
   + counted-seed_contig-213_plasmid-0 + counted-seed_contig-210_plasmid-0
   + counted-seed_contig-131_plasmid-0 + counted-seed_contig-137_plasmid-0
   + counted-seed_contig-136_plasmid-0 + counted-seed_contig-139_plasmid-0
   + counted-seed_contig-138_plasmid-0 + counted-seed_contig-166_plasmid-0
   + counted-seed_contig-160_plasmid-0 + counted-seed_contig-161_plasmid-0
   + counted-seed_contig-121_plasmid-0 + counted-seed_contig-123_plasmid-0
   + counted-seed_contig-124_plasmid-0 + counted-seed_contig-125_plasmid-0
   + counted-seed_contig-126_plasmid-0 + counted-seed_contig-128_plasmid-0
   + counted-seed_contig-129_plasmid-0 + counted-seed_contig-167_plasmid-0
   + counted-seed_contig-118_plasmid-0 + counted-seed_contig-164_plasmid-0
   + counted-seed_contig-199_plasmid-0 + counted-seed_contig-179_plasmid-0
   + counted-seed_contig-200_plasmid-0 + counted-seed_contig-195_plasmid-0
   + counted-seed_contig-194_plasmid-0 + counted-seed_contig-197_plasmid-0
   + counted-seed_contig-191_plasmid-0 + counted-seed_contig-190_plasmid-0
   + counted-seed_contig-193_plasmid-0 + counted-seed_contig-192_plasmid-0
   + counted-seed_contig-111_plasmid-0 + counted-seed_contig-110_plasmid-0
   + counted-seed_contig-80_plasmid-0 + counted-seed_contig-81_plasmid-0
   + counted-seed_contig-87_plasmid-0 + counted-seed_contig-84_plasmid-0
   + counted-seed_contig-85_plasmid-0 + counted-seed_contig-206_plasmid-0
   + counted-seed_contig-108_plasmid-0 + counted-seed_contig-102_plasmid-0
   + counted-seed_contig-103_plasmid-0 + counted-seed_contig-106_plasmid-0
   + counted-seed_contig-105_plasmid-0 + counted-seed_contig-205_plasmid-0
   + counted-seed_contig-60_plasmid-0 + counted-seed_contig-62_plasmid-0
   + counted-seed_contig-65_plasmid-0 + counted-seed_contig-66_plasmid-0
   + counted-seed_contig-69_plasmid-0 + counted-seed_contig-175_plasmid-0
   + counted-seed_contig-174_plasmid-0 + counted-seed_contig-173_plasmid-0
   + counted-seed_contig-171_plasmid-0 + counted-seed_contig-170_plasmid-0
   + counted-seed_contig-203_plasmid-0 + counted-seed_contig-181_plasmid-0
   + counted-seed_contig-182_plasmid-0 + counted-seed_contig-183_plasmid-0
   + counted-seed_contig-180_plasmid-0 + counted-seed_contig-162_plasmid-0
   + counted-seed_contig-6_plasmid-0 + counted-seed_contig-202_plasmid-0
   + counted-seed_contig-196_plasmid-0 + counted-seed_contig-185_plasmid-0
   + counted-seed_contig-169_plasmid-0 + counted-seed_contig-91_plasmid-0
   + counted-seed_contig-90_plasmid-0 + counted-seed_contig-92_plasmid-0
   + counted-seed_contig-95_plasmid-0 + counted-seed_contig-96_plasmid-0
   + counted-seed_contig-17_plasmid-0 + counted-seed_contig-117_plasmid-0
   + counted-seed_contig-204_plasmid-0 + counted-seed_contig-151_plasmid-0
   + counted-seed_contig-150_plasmid-0 + counted-seed_contig-152_plasmid-0
   + counted-seed_contig-157_plasmid-0 + counted-seed_contig-156_plasmid-0
   + counted-seed_contig-207_plasmid-0 + counted-seed_contig-49_plasmid-0
   + counted-seed_contig-146_plasmid-0 + counted-seed_contig-147_plasmid-0
   + counted-seed_contig-144_plasmid-0 + counted-seed_contig-145_plasmid-0
   + counted-seed_contig-142_plasmid-0 + counted-seed_contig-143_plasmid-0
   + counted-seed_contig-140_plasmid-0 + counted-seed_contig-141_plasmid-0
   + counted-seed_contig-209_plasmid-0 + counted-seed_contig-208_plasmid-0
   + counted-seed_contig-148_plasmid-0 + counted-seed_contig-149_plasmid-0
   + counted-seed_contig-72_plasmid-0 + counted-seed_contig-71_plasmid-0
   + counted-seed_contig-70_plasmid-0 + counted-seed_contig-79_plasmid-0
   + counted-seed_contig-78_plasmid-0 >= 1
Bounds
Binaries
 contig-6_plasmid-0 contigext-6h_plasmid-0 contigext-6t_plasmid-0
 contig-90_plasmid-0 contigext-90h_plasmid-0 contigext-90t_plasmid-0
 counted-seed_contig-216_plasmid-0 counted-seed_contig-214_plasmid-0
 counted-seed_contig-212_plasmid-0 counted-seed_contig-213_plasmid-0
 counted-seed_contig-210_plasmid-0 counted-seed_contig-131_plasmid-0
 counted-seed_contig-137_plasmid-0 counted-seed_contig-136_plasmid-0
 counted-seed_contig-139_plasmid-0 counted-seed_contig-138_plasmid-0
 counted-seed_contig-166_plasmid-0 counted-seed_contig-160_plasmid-0
 counted-seed_contig-161_plasmid-0 counted-seed_contig-121_plasmid-0
 counted-seed_contig-123_plasmid-0 counted-seed_contig-124_plasmid-0
 counted-seed_contig-125_plasmid-0 counted-seed_contig-126_plasmid-0
 counted-seed_contig-128_plasmid-0 counted-seed_contig-129_plasmid-0
 counted-seed_contig-167_plasmid-0 counted-seed_contig-118_plasmid-0
 counted-seed_contig-164_plasmid-0 counted-seed_contig-199_plasmid-0
 counted-seed_contig-179_plasmid-0 counted-seed_contig-200_plasmid-0
 counted-seed_contig-195_plasmid-0 counted-seed_contig-194_plasmid-0
 counted-seed_contig-197_plasmid-0 counted-seed_contig-191_plasmid-0
 counted-seed_contig-190_plasmid-0 counted-seed_contig-193_plasmid-0
 counted-seed_contig-192_plasmid-0 counted-seed_contig-111_plasmid-0
 counted-seed_contig-110_plasmid-0 counted-seed_contig-80_plasmid-0
 counted-seed_contig-81_plasmid-0 counted-seed_contig-87_plasmid-0
 counted-seed_contig-84_plasmid-0 counted-seed_contig-85_plasmid-0
 counted-seed_contig-206_plasmid-0 counted-seed_contig-108_plasmid-0
 counted-seed_contig-102_plasmid-0 counted-seed_contig-103_plasmid-0
 counted-seed_contig-106_plasmid-0 counted-seed_contig-105_plasmid-0
 counted-seed_contig-205_plasmid-0 counted-seed_contig-60_plasmid-0
 counted-seed_contig-62_plasmid-0 counted-seed_contig-65_plasmid-0
 counted-seed_contig-66_plasmid-0 counted-seed_contig-69_plasmid-0
 counted-seed_contig-175_plasmid-0 counted-seed_contig-174_plasmid-0
 counted-seed_contig-173_plasmid-0 counted-seed_contig-171_plasmid-0
 counted-seed_contig-170_plasmid-0 counted-seed_contig-203_plasmid-0
 counted-seed_contig-181_plasmid-0 counted-seed_contig-182_plasmid-0
 counted-seed_contig-183_plasmid-0 counted-seed_contig-180_plasmid-0
 counted-seed_contig-162_plasmid-0 counted-seed_contig-6_plasmid-0
 counted-seed_contig-202_plasmid-0 counted-seed_contig-196_plasmid-0
 counted-seed_contig-185_plasmid-0 counted-seed_contig-169_plasmid-0
 counted-seed_contig-91_plasmid-0 counted-seed_contig-90_plasmid-0
 counted-seed_contig-92_plasmid-0 counted-seed_contig-95_plasmid-0
 counted-seed_contig-96_plasmid-0 counted-seed_contig-17_plasmid-0
 counted-seed_contig-117_plasmid-0 counted-seed_contig-204_plasmid-0
 counted-seed_contig-151_plasmid-0 counted-seed_contig-150_plasmid-0
 counted-seed_contig-152_plasmid-0 counted-seed_contig-157_plasmid-0
 counted-seed_contig-156_plasmid-0 counted-seed_contig-207_plasmid-0
 counted-seed_contig-49_plasmid-0 counted-seed_contig-146_plasmid-0
 counted-seed_contig-147_plasmid-0 counted-seed_contig-144_plasmid-0
 counted-seed_contig-145_plasmid-0 counted-seed_contig-142_plasmid-0
 counted-seed_contig-143_plasmid-0 counted-seed_contig-140_plasmid-0
 counted-seed_contig-141_plasmid-0 counted-seed_contig-209_plasmid-0
 counted-seed_contig-208_plasmid-0 counted-seed_contig-148_plasmid-0
 counted-seed_contig-149_plasmid-0 counted-seed_contig-72_plasmid-0
 counted-seed_contig-71_plasmid-0 counted-seed_contig-70_plasmid-0
 counted-seed_contig-79_plasmid-0 counted-seed_contig-78_plasmid-0
End
